#######################################
### Exact MIP solver for the HHCRSP ###
#######################################
-- Instance file: new-instances/HHCRSP_300_60_60_1.0_R_RC.txt
-- Max threads: 4
-- Time limit: 999999 seconds
-- Use initial solution: No
Trivial flow violations prevented generating 1171106 variables.
Version identifier: 20.1.0.0 | 2020-11-10 | 9bedb6d68
CPXPARAM_Threads                                 4
CPXPARAM_TimeLimit                               999999
Parallel mode: deterministic, using up to 4 threads for concurrent optimization:
 * Starting dual Simplex on 1 thread...
 * Starting Barrier on 3 threads...
Tried aggregator 1 time.
LP Presolve eliminated 43416 rows and 8762 columns.
Reduced LP has 1094768 rows, 1039265 columns, and 23905260 nonzeros.
Presolve time = 26.50 sec. (5285.34 ticks)
Symmetry aggregator did 1717868 additional substitutions.
Initializing dual steep norms . . .

Iteration log . . .
Iteration:     1   Dual objective     =             1.000000

Dual crossover.
  Dual:  Fixing 1678 variables.
     1677 DMoves:  Infeasibility  1.02395870e-12  Objective  3.77333333e+02
        0 DMoves:  Infeasibility  4.51361173e-13  Objective  3.77333333e+02
  Dual:  Pushed 29, exchanged 1649.
  Primal:  Fixing 876 variables.
      875 PMoves:  Infeasibility  0.00000000e+00  Objective  3.77333333e+02
        0 PMoves:  Infeasibility  0.00000000e+00  Objective  3.77333333e+02
  Primal:  Pushed 731, exchanged 145.

Dual simplex solved model.


Solution status from MIP model:
-- Processing time: 44.954 sec.
-- Memory used: 1016.25 MB
-- Best bound: inf
-- Obj value: 377.333
-- Gap: inf%
-- Total distance: 1132
-- Total tardiness: 0
-- Largest tardiness: 0
